$molecule
+1 1 
H	0.000000	0.000000	0.0000000
He	0.000000	0.000000	10.0000000
$end

$rem
jobtype         sp
correlation     none
exchange        hf
adc_order       2
adc_singlets    1
sym_ignore      true
adc_prop_es     true
mem_total       7000
mem_static      1000
basis           3-21G 
threads         2
n_frozen_core   fc
make_cube_files false
cis_ampl_anal   true
molden_format   false
$end

$plots
Plot all four types of quantities
100 -2.0 2.0
100 -2.0 2.0
100 -2.0 10.0
0 8 8 8
1 2 3 4 5 6 7 8
$end
